40 1800 100000 0 0 20 20
12000 16000 0
 2849	 18260	    413
 9645	 3819	    519
 23858	 21824	    514
 19191	 20895	    454
 12224	 27445	    456
 4285	 8963	    893
 14804	 10469	    388
 23748	 18850	    400
 5820	 7206	    456
 15768	 10945	    523
 7708	 22476	    420
 15025	 5902	    413
 19110	 2062	    421
 8129	 24283	    615
 14322	 12012	    614
 5339	 26918	    886
 16129	 27934	    752
 17404	 4546	    371
 22965	 24647	    376
 6724	 7470	    422
 16646	  13173      621
 8626	  10036      631
 8606	  5406	     773
 19979	  19722      287
 22578	  5795	     278
 10403	  17539      678
 2804	  12382      687
 8526	  17187      143
 14016	  23474      347
 18623	  1579	     842
 315	  6937	     412
 21464	  13536      509
 2573	  20902      833
 21464	  6497	     312
 13314	  3762	     352
 22970	  23813      594
 706	  13122      522
 6538	  17689      294
 5414	  17551      698
 656	  2006	     180
 
